unknown
(model
; cardinality of BoundSet is 3
(declare-sort BoundSet 0)
; rep: @uc_BoundSet_0
; rep: @uc_BoundSet_1
; rep: @uc_BoundSet_2
; cardinality of UnboundSet is 1
(declare-sort UnboundSet 0)
(declare-fun groundTerm_4 () UnboundSet)
(define-fun IsInPolarIce ((BOUND_VARIABLE_549 BoundSet)) Bool true)
(define-fun IsInWorld ((BOUND_VARIABLE_549 BoundSet)) Bool true)
(define-fun IsSinceSatelliteRecords ((BOUND_VARIABLE_549 BoundSet)) Bool true)
(define-fun IsInPolarIceIncrease ((BOUND_VARIABLE_549 BoundSet)) Bool false)
(define-fun IsExperiencing ((BOUND_VARIABLE_549 BoundSet)) Bool false)
(define-fun IsIn1979 ((BOUND_VARIABLE_549 BoundSet)) Bool false)
)
unsat
(error "Cannot get model unless immediately preceded by SAT/NOT_ENTAILED or UNKNOWN response.")
